(set-logic ALL)
(declare-const parentheses_VAR String)
(assert (< 0 (str.len parentheses_VAR)))
(assert (> (str.len parentheses_VAR) 0))
(assert (not (= (str.at parentheses_VAR 0) ")")))
(assert (not (= (str.at parentheses_VAR 0) "]")))
(assert (not (= (str.at parentheses_VAR 0) "}")))
(assert (< 1 (str.len parentheses_VAR)))
(assert (> (str.len parentheses_VAR) 1))
(assert (not (= (str.at parentheses_VAR 1) ")")))
(assert (not (= (str.at parentheses_VAR 1) "]")))
(assert (not (= (str.at parentheses_VAR 1) "}")))
(assert (< 2 (str.len parentheses_VAR)))
(assert (> (str.len parentheses_VAR) 2))
(assert (not (= (str.at parentheses_VAR 2) ")")))
(assert (not (= (str.at parentheses_VAR 2) "]")))
(assert (not (= (str.at parentheses_VAR 2) "}")))
(assert (< 3 (str.len parentheses_VAR)))
(assert (> (str.len parentheses_VAR) 3))
(assert (not (= (str.at parentheses_VAR 3) ")")))
(assert (not (= (str.at parentheses_VAR 3) "]")))
(assert (not (= (str.at parentheses_VAR 3) "}")))
(assert (< 4 (str.len parentheses_VAR)))
(assert (> (str.len parentheses_VAR) 4))
(assert (not (= (str.at parentheses_VAR 4) ")")))
(assert (not (= (str.at parentheses_VAR 4) "]")))
(assert (not (= (str.at parentheses_VAR 4) "}")))
(assert (< 5 (str.len parentheses_VAR)))
(assert (> (str.len parentheses_VAR) 5))
(assert (not (= (str.at parentheses_VAR 5) ")")))
(assert (not (= (str.at parentheses_VAR 5) "]")))
(assert (not (= (str.at parentheses_VAR 5) "}")))
(assert (< 6 (str.len parentheses_VAR)))
(assert (> (str.len parentheses_VAR) 6))
(assert (not (= (str.at parentheses_VAR 6) ")")))
(assert (not (= (str.at parentheses_VAR 6) "]")))
(assert (not (= (str.at parentheses_VAR 6) "}")))
(assert (< 7 (str.len parentheses_VAR)))
(assert (> (str.len parentheses_VAR) 7))
(assert (not (= (str.at parentheses_VAR 7) ")")))
(assert (not (= (str.at parentheses_VAR 7) "]")))
(assert (not (= (str.at parentheses_VAR 7) "}")))
(assert (< 8 (str.len parentheses_VAR)))
(assert (> (str.len parentheses_VAR) 8))
(assert (not (= (str.at parentheses_VAR 8) ")")))
(assert (not (= (str.at parentheses_VAR 8) "]")))
(assert (not (= (str.at parentheses_VAR 8) "}")))
(assert (< 9 (str.len parentheses_VAR)))
(assert (> (str.len parentheses_VAR) 9))
(assert (not (= (str.at parentheses_VAR 9) ")")))
(assert (not (= (str.at parentheses_VAR 9) "]")))
(assert (not (= (str.at parentheses_VAR 9) "}")))
(assert (< 10 (str.len parentheses_VAR)))
(assert (> (str.len parentheses_VAR) 10))
(assert (not (= (str.at parentheses_VAR 10) ")")))
(assert (not (= (str.at parentheses_VAR 10) "]")))
(assert (not (= (str.at parentheses_VAR 10) "}")))
(assert (< 11 (str.len parentheses_VAR)))
(assert (> (str.len parentheses_VAR) 11))
(assert (not (= (str.at parentheses_VAR 11) ")")))
(assert (not (= (str.at parentheses_VAR 11) "]")))
(assert (not (= (str.at parentheses_VAR 11) "}")))
(assert (< 12 (str.len parentheses_VAR)))
(assert (> (str.len parentheses_VAR) 12))
(assert (not (= (str.at parentheses_VAR 12) ")")))
(assert (not (= (str.at parentheses_VAR 12) "]")))
(assert (not (= (str.at parentheses_VAR 12) "}")))
(assert (< 13 (str.len parentheses_VAR)))
(assert (> (str.len parentheses_VAR) 13))
(assert (not (= (str.at parentheses_VAR 13) ")")))
(assert (not (= (str.at parentheses_VAR 13) "]")))
(assert (not (= (str.at parentheses_VAR 13) "}")))
(assert (< 14 (str.len parentheses_VAR)))
(assert (> (str.len parentheses_VAR) 14))
(assert (not (= (str.at parentheses_VAR 14) ")")))
(assert (not (= (str.at parentheses_VAR 14) "]")))
(assert (not (= (str.at parentheses_VAR 14) "}")))
(assert (< 15 (str.len parentheses_VAR)))
(assert (> (str.len parentheses_VAR) 15))
(assert (not (= (str.at parentheses_VAR 15) ")")))
(assert (not (= (str.at parentheses_VAR 15) "]")))
(assert (not (= (str.at parentheses_VAR 15) "}")))
(assert (< 16 (str.len parentheses_VAR)))
(assert (> (str.len parentheses_VAR) 16))
(assert (not (= (str.at parentheses_VAR 16) ")")))
(assert (not (= (str.at parentheses_VAR 16) "]")))
(assert (not (= (str.at parentheses_VAR 16) "}")))
(assert (< 17 (str.len parentheses_VAR)))
(assert (> (str.len parentheses_VAR) 17))
(assert (not (= (str.at parentheses_VAR 17) ")")))
(assert (not (= (str.at parentheses_VAR 17) "]")))
(assert (not (= (str.at parentheses_VAR 17) "}")))
(assert (< 18 (str.len parentheses_VAR)))
(assert (> (str.len parentheses_VAR) 18))
(assert (not (= (str.at parentheses_VAR 18) ")")))
(assert (not (= (str.at parentheses_VAR 18) "]")))
(assert (not (= (str.at parentheses_VAR 18) "}")))
(assert (< 19 (str.len parentheses_VAR)))
(assert (> (str.len parentheses_VAR) 19))
(assert (not (= (str.at parentheses_VAR 19) ")")))
(assert (not (= (str.at parentheses_VAR 19) "]")))
(assert (not (= (str.at parentheses_VAR 19) "}")))
(assert (< 20 (str.len parentheses_VAR)))
(assert (> (str.len parentheses_VAR) 20))
(assert (not (= (str.at parentheses_VAR 20) ")")))
(assert (not (= (str.at parentheses_VAR 20) "]")))
(assert (not (= (str.at parentheses_VAR 20) "}")))
(assert (< 21 (str.len parentheses_VAR)))
(assert (> (str.len parentheses_VAR) 21))
(assert (not (= (str.at parentheses_VAR 21) ")")))
(assert (not (= (str.at parentheses_VAR 21) "]")))
(assert (not (= (str.at parentheses_VAR 21) "}")))
(assert (< 22 (str.len parentheses_VAR)))
(assert (> (str.len parentheses_VAR) 22))
(assert (not (= (str.at parentheses_VAR 22) ")")))
(assert (not (= (str.at parentheses_VAR 22) "]")))
(assert (not (= (str.at parentheses_VAR 22) "}")))
(assert (< 23 (str.len parentheses_VAR)))
(assert (> (str.len parentheses_VAR) 23))
(assert (not (= (str.at parentheses_VAR 23) ")")))
(assert (not (= (str.at parentheses_VAR 23) "]")))
(assert (not (= (str.at parentheses_VAR 23) "}")))
(assert (< 24 (str.len parentheses_VAR)))
(assert (> (str.len parentheses_VAR) 24))
(assert (not (= (str.at parentheses_VAR 24) ")")))
(assert (not (= (str.at parentheses_VAR 24) "]")))
(assert (not (= (str.at parentheses_VAR 24) "}")))
(assert (< 25 (str.len parentheses_VAR)))
(assert (> (str.len parentheses_VAR) 25))
(assert (not (= (str.at parentheses_VAR 25) ")")))
(assert (not (= (str.at parentheses_VAR 25) "]")))
(assert (= (str.at parentheses_VAR 25) "}"))
(check-sat)
(get-value (parentheses_VAR))
